c Reduced graph for r24 generated by Cyril Grelier
p edge 263 3196
e 1 2
e 1 3
e 1 6
e 1 9
e 1 10
e 1 11
e 1 17
e 1 20
e 1 21
e 1 22
e 1 23
e 1 28
e 1 30
e 1 38
e 1 40
e 1 41
e 1 42
e 1 56
e 1 65
e 1 72
e 1 83
e 1 88
e 1 96
e 1 97
e 1 98
e 1 121
e 1 128
e 1 153
e 1 186
e 1 204
e 1 260
e 2 4
e 2 7
e 2 9
e 2 10
e 2 11
e 2 18
e 2 20
e 2 21
e 2 22
e 2 24
e 2 29
e 2 31
e 2 39
e 2 40
e 2 41
e 2 43
e 2 57
e 2 65
e 2 84
e 2 89
e 2 96
e 2 97
e 2 98
e 2 103
e 2 122
e 2 128
e 2 153
e 2 165
e 2 204
e 2 261
e 3 4
e 3 5
e 3 6
e 3 12
e 3 13
e 3 14
e 3 17
e 3 23
e 3 25
e 3 26
e 3 27
e 3 28
e 3 30
e 3 38
e 3 42
e 3 48
e 3 49
e 3 56
e 3 72
e 3 74
e 3 83
e 3 88
e 3 109
e 3 110
e 3 121
e 3 135
e 3 186
e 3 214
e 3 260
e 4 5
e 4 7
e 4 12
e 4 13
e 4 14
e 4 18
e 4 24
e 4 25
e 4 26
e 4 27
e 4 29
e 4 31
e 4 39
e 4 43
e 4 48
e 4 49
e 4 57
e 4 74
e 4 84
e 4 89
e 4 103
e 4 109
e 4 110
e 4 122
e 4 135
e 4 165
e 4 214
e 4 261
e 5 8
e 5 12
e 5 13
e 5 14
e 5 19
e 5 25
e 5 26
e 5 27
e 5 32
e 5 44
e 5 48
e 5 49
e 5 66
e 5 73
e 5 74
e 5 85
e 5 90
e 5 92
e 5 104
e 5 105
e 5 109
e 5 110
e 5 123
e 5 135
e 5 166
e 5 187
e 5 214
e 5 262
e 6 7
e 6 8
e 6 15
e 6 16
e 6 17
e 6 23
e 6 28
e 6 30
e 6 33
e 6 34
e 6 35
e 6 38
e 6 42
e 6 56
e 6 58
e 6 59
e 6 72
e 6 83
e 6 86
e 6 87
e 6 88
e 6 116
e 6 117
e 6 118
e 6 121
e 6 186
e 6 197
e 6 260
e 7 8
e 7 15
e 7 16
e 7 18
e 7 24
e 7 29
e 7 31
e 7 33
e 7 34
e 7 35
e 7 39
e 7 43
e 7 57
e 7 58
e 7 59
e 7 84
e 7 86
e 7 87
e 7 89
e 7 103
e 7 116
e 7 117
e 7 118
e 7 122
e 7 165
e 7 197
e 7 261
e 8 15
e 8 16
e 8 19
e 8 32
e 8 33
e 8 34
e 8 35
e 8 44
e 8 58
e 8 59
e 8 66
e 8 73
e 8 85
e 8 86
e 8 87
e 8 90
e 8 92
e 8 104
e 8 105
e 8 116
e 8 117
e 8 118
e 8 123
e 8 166
e 8 187
e 8 197
e 8 262
e 9 10
e 9 11
e 9 12
e 9 15
e 9 20
e 9 21
e 9 22
e 9 36
e 9 40
e 9 41
e 9 45
e 9 50
e 9 53
e 9 62
e 9 65
e 9 67
e 9 81
e 9 96
e 9 97
e 9 98
e 9 107
e 9 119
e 9 124
e 9 128
e 9 145
e 9 153
e 9 191
e 9 204
e 10 11
e 10 13
e 10 16
e 10 20
e 10 21
e 10 22
e 10 37
e 10 40
e 10 41
e 10 46
e 10 51
e 10 54
e 10 63
e 10 65
e 10 68
e 10 96
e 10 97
e 10 98
e 10 99
e 10 108
e 10 114
e 10 125
e 10 128
e 10 131
e 10 146
e 10 153
e 10 204
e 11 14
e 11 20
e 11 21
e 11 22
e 11 40
e 11 41
e 11 47
e 11 52
e 11 55
e 11 64
e 11 65
e 11 69
e 11 82
e 11 96
e 11 97
e 11 98
e 11 100
e 11 115
e 11 120
e 11 128
e 11 132
e 11 133
e 11 153
e 11 192
e 11 204
e 11 211
e 12 13
e 12 14
e 12 15
e 12 25
e 12 26
e 12 27
e 12 36
e 12 45
e 12 48
e 12 49
e 12 50
e 12 53
e 12 62
e 12 67
e 12 74
e 12 81
e 12 107
e 12 109
e 12 110
e 12 119
e 12 124
e 12 135
e 12 145
e 12 191
e 12 214
e 13 14
e 13 16
e 13 25
e 13 26
e 13 27
e 13 37
e 13 46
e 13 48
e 13 49
e 13 51
e 13 54
e 13 63
e 13 68
e 13 74
e 13 99
e 13 108
e 13 109
e 13 110
e 13 114
e 13 125
e 13 131
e 13 135
e 13 146
e 13 214
e 14 25
e 14 26
e 14 27
e 14 47
e 14 48
e 14 49
e 14 52
e 14 55
e 14 64
e 14 69
e 14 74
e 14 82
e 14 100
e 14 109
e 14 110
e 14 115
e 14 120
e 14 132
e 14 133
e 14 135
e 14 192
e 14 211
e 14 214
e 15 16
e 15 33
e 15 34
e 15 35
e 15 36
e 15 45
e 15 50
e 15 53
e 15 58
e 15 59
e 15 62
e 15 67
e 15 81
e 15 86
e 15 87
e 15 107
e 15 116
e 15 117
e 15 118
e 15 119
e 15 124
e 15 145
e 15 191
e 15 197
e 16 33
e 16 34
e 16 35
e 16 37
e 16 46
e 16 51
e 16 54
e 16 58
e 16 59
e 16 63
e 16 68
e 16 86
e 16 87
e 16 99
e 16 108
e 16 114
e 16 116
e 16 117
e 16 118
e 16 125
e 16 131
e 16 146
e 16 197
e 17 18
e 17 19
e 17 23
e 17 28
e 17 30
e 17 36
e 17 37
e 17 38
e 17 42
e 17 56
e 17 60
e 17 61
e 17 72
e 17 83
e 17 88
e 17 91
e 17 121
e 17 147
e 17 148
e 17 149
e 17 150
e 17 176
e 17 186
e 17 202
e 17 224
e 17 260
e 18 19
e 18 24
e 18 29
e 18 31
e 18 36
e 18 37
e 18 39
e 18 43
e 18 57
e 18 60
e 18 61
e 18 84
e 18 89
e 18 91
e 18 103
e 18 122
e 18 147
e 18 148
e 18 149
e 18 150
e 18 165
e 18 176
e 18 202
e 18 224
e 18 261
e 19 32
e 19 36
e 19 37
e 19 44
e 19 60
e 19 61
e 19 66
e 19 73
e 19 85
e 19 90
e 19 91
e 19 92
e 19 104
e 19 105
e 19 123
e 19 147
e 19 148
e 19 149
e 19 150
e 19 166
e 19 176
e 19 187
e 19 202
e 19 224
e 19 262
e 20 21
e 20 22
e 20 25
e 20 33
e 20 40
e 20 41
e 20 60
e 20 65
e 20 70
e 20 75
e 20 78
e 20 93
e 20 96
e 20 97
e 20 98
e 20 101
e 20 128
e 20 129
e 20 141
e 20 151
e 20 153
e 20 156
e 20 158
e 20 204
e 21 22
e 21 26
e 21 34
e 21 40
e 21 41
e 21 65
e 21 76
e 21 79
e 21 94
e 21 96
e 21 97
e 21 98
e 21 102
e 21 128
e 21 142
e 21 144
e 21 152
e 21 153
e 21 157
e 21 159
e 21 204
e 21 215
e 21 234
e 22 27
e 22 35
e 22 40
e 22 41
e 22 61
e 22 65
e 22 71
e 22 77
e 22 80
e 22 95
e 22 96
e 22 97
e 22 98
e 22 113
e 22 128
e 22 130
e 22 143
e 22 153
e 22 160
e 22 175
e 22 204
e 22 235
e 23 24
e 23 28
e 23 30
e 23 38
e 23 42
e 23 45
e 23 46
e 23 47
e 23 56
e 23 70
e 23 71
e 23 72
e 23 83
e 23 88
e 23 106
e 23 121
e 23 134
e 23 161
e 23 162
e 23 186
e 23 188
e 23 236
e 23 243
e 23 260
e 24 29
e 24 31
e 24 39
e 24 43
e 24 45
e 24 46
e 24 47
e 24 57
e 24 70
e 24 71
e 24 84
e 24 89
e 24 103
e 24 106
e 24 122
e 24 134
e 24 161
e 24 162
e 24 165
e 24 188
e 24 236
e 24 243
e 24 261
e 25 26
e 25 27
e 25 33
e 25 48
e 25 49
e 25 60
e 25 70
e 25 74
e 25 75
e 25 78
e 25 93
e 25 101
e 25 109
e 25 110
e 25 129
e 25 135
e 25 141
e 25 151
e 25 156
e 25 158
e 25 214
e 26 27
e 26 34
e 26 48
e 26 49
e 26 74
e 26 76
e 26 79
e 26 94
e 26 102
e 26 109
e 26 110
e 26 135
e 26 142
e 26 144
e 26 152
e 26 157
e 26 159
e 26 214
e 26 215
e 26 234
e 27 35
e 27 48
e 27 49
e 27 61
e 27 71
e 27 74
e 27 77
e 27 80
e 27 95
e 27 109
e 27 110
e 27 113
e 27 130
e 27 135
e 27 143
e 27 160
e 27 175
e 27 214
e 27 235
e 28 29
e 28 30
e 28 38
e 28 42
e 28 50
e 28 51
e 28 52
e 28 56
e 28 72
e 28 75
e 28 76
e 28 77
e 28 83
e 28 88
e 28 111
e 28 121
e 28 136
e 28 137
e 28 167
e 28 168
e 28 186
e 28 216
e 28 260
e 29 31
e 29 39
e 29 43
e 29 50
e 29 51
e 29 52
e 29 57
e 29 75
e 29 76
e 29 77
e 29 84
e 29 89
e 29 103
e 29 111
e 29 122
e 29 136
e 29 137
e 29 165
e 29 167
e 29 168
e 29 216
e 29 261
e 30 31
e 30 32
e 30 38
e 30 42
e 30 53
e 30 54
e 30 55
e 30 56
e 30 72
e 30 78
e 30 79
e 30 80
e 30 83
e 30 88
e 30 112
e 30 121
e 30 138
e 30 169
e 30 186
e 30 193
e 30 238
e 30 260
e 31 32
e 31 39
e 31 43
e 31 53
e 31 54
e 31 55
e 31 57
e 31 78
e 31 79
e 31 80
e 31 84
e 31 89
e 31 103
e 31 112
e 31 122
e 31 138
e 31 165
e 31 169
e 31 193
e 31 238
e 31 261
e 32 44
e 32 53
e 32 54
e 32 55
e 32 66
e 32 73
e 32 78
e 32 79
e 32 80
e 32 85
e 32 90
e 32 92
e 32 104
e 32 105
e 32 112
e 32 123
e 32 138
e 32 166
e 32 169
e 32 187
e 32 193
e 32 238
e 32 262
e 33 34
e 33 35
e 33 58
e 33 59
e 33 60
e 33 70
e 33 75
e 33 78
e 33 86
e 33 87
e 33 93
e 33 101
e 33 116
e 33 117
e 33 118
e 33 129
e 33 141
e 33 151
e 33 156
e 33 158
e 33 197
e 34 35
e 34 58
e 34 59
e 34 76
e 34 79
e 34 86
e 34 87
e 34 94
e 34 102
e 34 116
e 34 117
e 34 118
e 34 142
e 34 144
e 34 152
e 34 157
e 34 159
e 34 197
e 34 215
e 34 234
e 35 58
e 35 59
e 35 61
e 35 71
e 35 77
e 35 80
e 35 86
e 35 87
e 35 95
e 35 113
e 35 116
e 35 117
e 35 118
e 35 130
e 35 143
e 35 160
e 35 175
e 35 197
e 35 235
e 36 37
e 36 45
e 36 50
e 36 53
e 36 60
e 36 61
e 36 62
e 36 67
e 36 81
e 36 91
e 36 107
e 36 119
e 36 124
e 36 145
e 36 147
e 36 148
e 36 149
e 36 150
e 36 176
e 36 191
e 36 202
e 36 224
e 37 46
e 37 51
e 37 54
e 37 60
e 37 61
e 37 63
e 37 68
e 37 91
e 37 99
e 37 108
e 37 114
e 37 125
e 37 131
e 37 146
e 37 147
e 37 148
e 37 149
e 37 150
e 37 176
e 37 202
e 37 224
e 38 39
e 38 42
e 38 56
e 38 62
e 38 63
e 38 64
e 38 72
e 38 83
e 38 88
e 38 93
e 38 94
e 38 95
e 38 121
e 38 126
e 38 127
e 38 179
e 38 180
e 38 186
e 38 239
e 38 247
e 38 260
e 39 43
e 39 57
e 39 62
e 39 63
e 39 64
e 39 84
e 39 89
e 39 93
e 39 94
e 39 95
e 39 103
e 39 122
e 39 126
e 39 127
e 39 165
e 39 179
e 39 180
e 39 239
e 39 247
e 39 261
e 40 41
e 40 48
e 40 58
e 40 65
e 40 91
e 40 96
e 40 97
e 40 98
e 40 112
e 40 126
e 40 128
e 40 139
e 40 153
e 40 163
e 40 173
e 40 177
e 40 184
e 40 200
e 40 204
e 40 237
e 41 49
e 41 59
e 41 65
e 41 96
e 41 97
e 41 98
e 41 106
e 41 111
e 41 127
e 41 128
e 41 140
e 41 153
e 41 164
e 41 172
e 41 174
e 41 178
e 41 185
e 41 201
e 41 204
e 42 43
e 42 44
e 42 56
e 42 67
e 42 68
e 42 69
e 42 72
e 42 83
e 42 88
e 42 101
e 42 102
e 42 121
e 42 154
e 42 155
e 42 182
e 42 183
e 42 186
e 42 209
e 42 228
e 42 260
e 43 44
e 43 57
e 43 67
e 43 68
e 43 69
e 43 84
e 43 89
e 43 101
e 43 102
e 43 103
e 43 122
e 43 154
e 43 155
e 43 165
e 43 182
e 43 183
e 43 209
e 43 228
e 43 261
e 44 66
e 44 67
e 44 68
e 44 69
e 44 73
e 44 85
e 44 90
e 44 92
e 44 101
e 44 102
e 44 104
e 44 105
e 44 123
e 44 154
e 44 155
e 44 166
e 44 182
e 44 183
e 44 187
e 44 209
e 44 228
e 44 262
e 45 46
e 45 47
e 45 50
e 45 53
e 45 62
e 45 67
e 45 70
e 45 71
e 45 81
e 45 106
e 45 107
e 45 119
e 45 124
e 45 134
e 45 145
e 45 161
e 45 162
e 45 188
e 45 191
e 45 236
e 45 243
e 46 47
e 46 51
e 46 54
e 46 63
e 46 68
e 46 70
e 46 71
e 46 99
e 46 106
e 46 108
e 46 114
e 46 125
e 46 131
e 46 134
e 46 146
e 46 161
e 46 162
e 46 188
e 46 236
e 46 243
e 47 52
e 47 55
e 47 64
e 47 69
e 47 70
e 47 71
e 47 82
e 47 100
e 47 106
e 47 115
e 47 120
e 47 132
e 47 133
e 47 134
e 47 161
e 47 162
e 47 188
e 47 192
e 47 211
e 47 236
e 47 243
e 48 49
e 48 58
e 48 74
e 48 91
e 48 109
e 48 110
e 48 112
e 48 126
e 48 135
e 48 139
e 48 163
e 48 173
e 48 177
e 48 184
e 48 200
e 48 214
e 48 237
e 49 59
e 49 74
e 49 106
e 49 109
e 49 110
e 49 111
e 49 127
e 49 135
e 49 140
e 49 164
e 49 172
e 49 174
e 49 178
e 49 185
e 49 201
e 49 214
e 50 51
e 50 52
e 50 53
e 50 62
e 50 67
e 50 75
e 50 76
e 50 77
e 50 81
e 50 107
e 50 111
e 50 119
e 50 124
e 50 136
e 50 137
e 50 145
e 50 167
e 50 168
e 50 191
e 50 216
e 51 52
e 51 54
e 51 63
e 51 68
e 51 75
e 51 76
e 51 77
e 51 99
e 51 108
e 51 111
e 51 114
e 51 125
e 51 131
e 51 136
e 51 137
e 51 146
e 51 167
e 51 168
e 51 216
e 52 55
e 52 64
e 52 69
e 52 75
e 52 76
e 52 77
e 52 82
e 52 100
e 52 111
e 52 115
e 52 120
e 52 132
e 52 133
e 52 136
e 52 137
e 52 167
e 52 168
e 52 192
e 52 211
e 52 216
e 53 54
e 53 55
e 53 62
e 53 67
e 53 78
e 53 79
e 53 80
e 53 81
e 53 107
e 53 112
e 53 119
e 53 124
e 53 138
e 53 145
e 53 169
e 53 191
e 53 193
e 53 238
e 54 55
e 54 63
e 54 68
e 54 78
e 54 79
e 54 80
e 54 99
e 54 108
e 54 112
e 54 114
e 54 125
e 54 131
e 54 138
e 54 146
e 54 169
e 54 193
e 54 238
e 55 64
e 55 69
e 55 78
e 55 79
e 55 80
e 55 82
e 55 100
e 55 112
e 55 115
e 55 120
e 55 132
e 55 133
e 55 138
e 55 169
e 55 192
e 55 193
e 55 211
e 55 238
e 56 57
e 56 72
e 56 81
e 56 82
e 56 83
e 56 88
e 56 113
e 56 121
e 56 139
e 56 140
e 56 170
e 56 171
e 56 186
e 56 194
e 56 195
e 56 217
e 56 245
e 56 260
e 57 81
e 57 82
e 57 84
e 57 89
e 57 103
e 57 113
e 57 122
e 57 139
e 57 140
e 57 165
e 57 170
e 57 171
e 57 194
e 57 195
e 57 217
e 57 245
e 57 261
e 58 59
e 58 86
e 58 87
e 58 91
e 58 112
e 58 116
e 58 117
e 58 118
e 58 126
e 58 139
e 58 163
e 58 173
e 58 177
e 58 184
e 58 197
e 58 200
e 58 237
e 59 86
e 59 87
e 59 106
e 59 111
e 59 116
e 59 117
e 59 118
e 59 127
e 59 140
e 59 164
e 59 172
e 59 174
e 59 178
e 59 185
e 59 197
e 59 201
e 60 61
e 60 70
e 60 75
e 60 78
e 60 91
e 60 93
e 60 101
e 60 129
e 60 141
e 60 147
e 60 148
e 60 149
e 60 150
e 60 151
e 60 156
e 60 158
e 60 176
e 60 202
e 60 224
e 61 71
e 61 77
e 61 80
e 61 91
e 61 95
e 61 113
e 61 130
e 61 143
e 61 147
e 61 148
e 61 149
e 61 150
e 61 160
e 61 175
e 61 176
e 61 202
e 61 224
e 61 235
e 62 63
e 62 64
e 62 67
e 62 81
e 62 93
e 62 94
e 62 95
e 62 107
e 62 119
e 62 124
e 62 126
e 62 127
e 62 145
e 62 179
e 62 180
e 62 191
e 62 239
e 62 247
e 63 64
e 63 68
e 63 93
e 63 94
e 63 95
e 63 99
e 63 108
e 63 114
e 63 125
e 63 126
e 63 127
e 63 131
e 63 146
e 63 179
e 63 180
e 63 239
e 63 247
e 64 69
e 64 82
e 64 93
e 64 94
e 64 95
e 64 100
e 64 115
e 64 120
e 64 126
e 64 127
e 64 132
e 64 133
e 64 179
e 64 180
e 64 192
e 64 211
e 64 239
e 64 247
e 65 74
e 65 86
e 65 96
e 65 97
e 65 98
e 65 128
e 65 136
e 65 138
e 65 153
e 65 154
e 65 170
e 65 189
e 65 198
e 65 204
e 65 210
e 65 222
e 65 250
e 66 73
e 66 85
e 66 90
e 66 92
e 66 99
e 66 100
e 66 104
e 66 105
e 66 123
e 66 129
e 66 130
e 66 166
e 66 181
e 66 187
e 66 205
e 66 206
e 66 207
e 66 208
e 66 227
e 66 240
e 66 256
e 66 262
e 67 68
e 67 69
e 67 81
e 67 101
e 67 102
e 67 107
e 67 119
e 67 124
e 67 145
e 67 154
e 67 155
e 67 182
e 67 183
e 67 191
e 67 209
e 67 228
e 68 69
e 68 99
e 68 101
e 68 102
e 68 108
e 68 114
e 68 125
e 68 131
e 68 146
e 68 154
e 68 155
e 68 182
e 68 183
e 68 209
e 68 228
e 69 82
e 69 100
e 69 101
e 69 102
e 69 115
e 69 120
e 69 132
e 69 133
e 69 154
e 69 155
e 69 182
e 69 183
e 69 192
e 69 209
e 69 211
e 69 228
e 70 71
e 70 75
e 70 78
e 70 93
e 70 101
e 70 106
e 70 129
e 70 134
e 70 141
e 70 151
e 70 156
e 70 158
e 70 161
e 70 162
e 70 188
e 70 236
e 70 243
e 71 77
e 71 80
e 71 95
e 71 106
e 71 113
e 71 130
e 71 134
e 71 143
e 71 160
e 71 161
e 71 162
e 71 175
e 71 188
e 71 235
e 71 236
e 71 243
e 72 73
e 72 83
e 72 88
e 72 107
e 72 108
e 72 121
e 72 163
e 72 164
e 72 186
e 72 189
e 72 190
e 72 212
e 72 213
e 72 251
e 72 259
e 72 260
e 73 85
e 73 90
e 73 92
e 73 104
e 73 105
e 73 107
e 73 108
e 73 123
e 73 163
e 73 164
e 73 166
e 73 187
e 73 189
e 73 190
e 73 212
e 73 213
e 73 251
e 73 259
e 73 262
e 74 86
e 74 109
e 74 110
e 74 135
e 74 136
e 74 138
e 74 154
e 74 170
e 74 189
e 74 198
e 74 210
e 74 214
e 74 222
e 74 250
e 75 76
e 75 77
e 75 78
e 75 93
e 75 101
e 75 111
e 75 129
e 75 136
e 75 137
e 75 141
e 75 151
e 75 156
e 75 158
e 75 167
e 75 168
e 75 216
e 76 77
e 76 79
e 76 94
e 76 102
e 76 111
e 76 136
e 76 137
e 76 142
e 76 144
e 76 152
e 76 157
e 76 159
e 76 167
e 76 168
e 76 215
e 76 216
e 76 234
e 77 80
e 77 95
e 77 111
e 77 113
e 77 130
e 77 136
e 77 137
e 77 143
e 77 160
e 77 167
e 77 168
e 77 175
e 77 216
e 77 235
e 78 79
e 78 80
e 78 93
e 78 101
e 78 112
e 78 129
e 78 138
e 78 141
e 78 151
e 78 156
e 78 158
e 78 169
e 78 193
e 78 238
e 79 80
e 79 94
e 79 102
e 79 112
e 79 138
e 79 142
e 79 144
e 79 152
e 79 157
e 79 159
e 79 169
e 79 193
e 79 215
e 79 234
e 79 238
e 80 95
e 80 112
e 80 113
e 80 130
e 80 138
e 80 143
e 80 160
e 80 169
e 80 175
e 80 193
e 80 235
e 80 238
e 81 82
e 81 107
e 81 113
e 81 119
e 81 124
e 81 139
e 81 140
e 81 145
e 81 170
e 81 171
e 81 191
e 81 194
e 81 195
e 81 217
e 81 245
e 82 100
e 82 113
e 82 115
e 82 120
e 82 132
e 82 133
e 82 139
e 82 140
e 82 170
e 82 171
e 82 192
e 82 194
e 82 195
e 82 211
e 82 217
e 82 245
e 83 84
e 83 85
e 83 88
e 83 114
e 83 115
e 83 121
e 83 141
e 83 142
e 83 143
e 83 172
e 83 186
e 83 196
e 83 218
e 83 219
e 83 260
e 84 85
e 84 89
e 84 103
e 84 114
e 84 115
e 84 122
e 84 141
e 84 142
e 84 143
e 84 165
e 84 172
e 84 196
e 84 218
e 84 219
e 84 261
e 85 90
e 85 92
e 85 104
e 85 105
e 85 114
e 85 115
e 85 123
e 85 141
e 85 142
e 85 143
e 85 166
e 85 172
e 85 187
e 85 196
e 85 218
e 85 219
e 85 262
e 86 87
e 86 116
e 86 117
e 86 118
e 86 136
e 86 138
e 86 154
e 86 170
e 86 189
e 86 197
e 86 198
e 86 210
e 86 222
e 86 250
e 87 116
e 87 117
e 87 118
e 87 134
e 87 137
e 87 155
e 87 171
e 87 181
e 87 190
e 87 196
e 87 197
e 87 199
e 87 203
e 87 223
e 87 244
e 88 89
e 88 90
e 88 119
e 88 120
e 88 121
e 88 144
e 88 173
e 88 174
e 88 186
e 88 198
e 88 199
e 88 220
e 88 221
e 88 260
e 89 90
e 89 103
e 89 119
e 89 120
e 89 122
e 89 144
e 89 165
e 89 173
e 89 174
e 89 198
e 89 199
e 89 220
e 89 221
e 89 261
e 90 92
e 90 104
e 90 105
e 90 119
e 90 120
e 90 123
e 90 144
e 90 166
e 90 173
e 90 174
e 90 187
e 90 198
e 90 199
e 90 220
e 90 221
e 90 262
e 91 112
e 91 126
e 91 139
e 91 147
e 91 148
e 91 149
e 91 150
e 91 163
e 91 173
e 91 176
e 91 177
e 91 184
e 91 200
e 91 202
e 91 224
e 91 237
e 92 104
e 92 105
e 92 123
e 92 124
e 92 125
e 92 151
e 92 152
e 92 166
e 92 177
e 92 178
e 92 187
e 92 203
e 92 225
e 92 226
e 92 246
e 92 255
e 92 262
e 93 94
e 93 95
e 93 101
e 93 126
e 93 127
e 93 129
e 93 141
e 93 151
e 93 156
e 93 158
e 93 179
e 93 180
e 93 239
e 93 247
e 94 95
e 94 102
e 94 126
e 94 127
e 94 142
e 94 144
e 94 152
e 94 157
e 94 159
e 94 179
e 94 180
e 94 215
e 94 234
e 94 239
e 94 247
e 95 113
e 95 126
e 95 127
e 95 130
e 95 143
e 95 160
e 95 175
e 95 179
e 95 180
e 95 235
e 95 239
e 95 247
e 96 97
e 96 98
e 96 109
e 96 116
e 96 128
e 96 147
e 96 153
e 96 182
e 96 204
e 96 205
e 96 225
e 96 229
e 96 232
e 96 252
e 96 257
e 97 98
e 97 128
e 97 148
e 97 153
e 97 161
e 97 167
e 97 179
e 97 183
e 97 194
e 97 204
e 97 206
e 97 212
e 97 220
e 97 230
e 98 110
e 98 117
e 98 128
e 98 149
e 98 153
e 98 162
e 98 169
e 98 204
e 98 207
e 98 213
e 98 218
e 98 221
e 98 233
e 99 100
e 99 108
e 99 114
e 99 125
e 99 129
e 99 130
e 99 131
e 99 146
e 99 181
e 99 205
e 99 206
e 99 207
e 99 208
e 99 227
e 99 240
e 99 256
e 100 115
e 100 120
e 100 129
e 100 130
e 100 132
e 100 133
e 100 181
e 100 192
e 100 205
e 100 206
e 100 207
e 100 208
e 100 211
e 100 227
e 100 240
e 100 256
e 101 102
e 101 129
e 101 141
e 101 151
e 101 154
e 101 155
e 101 156
e 101 158
e 101 182
e 101 183
e 101 209
e 101 228
e 102 142
e 102 144
e 102 152
e 102 154
e 102 155
e 102 157
e 102 159
e 102 182
e 102 183
e 102 209
e 102 215
e 102 228
e 102 234
e 103 104
e 103 122
e 103 131
e 103 132
e 103 156
e 103 157
e 103 165
e 103 229
e 103 230
e 103 231
e 103 241
e 103 248
e 103 261
e 103 263
e 104 105
e 104 123
e 104 131
e 104 132
e 104 156
e 104 157
e 104 166
e 104 187
e 104 229
e 104 230
e 104 231
e 104 241
e 104 248
e 104 262
e 104 263
e 105 123
e 105 133
e 105 158
e 105 159
e 105 160
e 105 166
e 105 184
e 105 185
e 105 187
e 105 210
e 105 232
e 105 233
e 105 242
e 105 249
e 105 262
e 106 111
e 106 127
e 106 134
e 106 140
e 106 161
e 106 162
e 106 164
e 106 172
e 106 174
e 106 178
e 106 185
e 106 188
e 106 201
e 106 236
e 106 243
e 107 108
e 107 119
e 107 124
e 107 145
e 107 163
e 107 164
e 107 189
e 107 190
e 107 191
e 107 212
e 107 213
e 107 251
e 107 259
e 108 114
e 108 125
e 108 131
e 108 146
e 108 163
e 108 164
e 108 189
e 108 190
e 108 212
e 108 213
e 108 251
e 108 259
e 109 110
e 109 116
e 109 135
e 109 147
e 109 182
e 109 205
e 109 214
e 109 225
e 109 229
e 109 232
e 109 252
e 109 257
e 110 117
e 110 135
e 110 149
e 110 162
e 110 169
e 110 207
e 110 213
e 110 214
e 110 218
e 110 221
e 110 233
e 111 127
e 111 136
e 111 137
e 111 140
e 111 164
e 111 167
e 111 168
e 111 172
e 111 174
e 111 178
e 111 185
e 111 201
e 111 216
e 112 126
e 112 138
e 112 139
e 112 163
e 112 169
e 112 173
e 112 177
e 112 184
e 112 193
e 112 200
e 112 237
e 112 238
e 113 130
e 113 139
e 113 140
e 113 143
e 113 160
e 113 170
e 113 171
e 113 175
e 113 194
e 113 195
e 113 217
e 113 235
e 113 245
e 114 115
e 114 125
e 114 131
e 114 141
e 114 142
e 114 143
e 114 146
e 114 172
e 114 196
e 114 218
e 114 219
e 115 120
e 115 132
e 115 133
e 115 141
e 115 142
e 115 143
e 115 172
e 115 192
e 115 196
e 115 211
e 115 218
e 115 219
e 116 117
e 116 118
e 116 147
e 116 182
e 116 197
e 116 205
e 116 225
e 116 229
e 116 232
e 116 252
e 116 257
e 117 118
e 117 149
e 117 162
e 117 169
e 117 197
e 117 207
e 117 213
e 117 218
e 117 221
e 117 233
e 118 150
e 118 168
e 118 180
e 118 195
e 118 197
e 118 208
e 118 219
e 118 226
e 118 231
e 118 253
e 118 258
e 119 120
e 119 124
e 119 144
e 119 145
e 119 173
e 119 174
e 119 191
e 119 198
e 119 199
e 119 220
e 119 221
e 120 132
e 120 133
e 120 144
e 120 173
e 120 174
e 120 192
e 120 198
e 120 199
e 120 211
e 120 220
e 120 221
e 121 122
e 121 123
e 121 145
e 121 146
e 121 175
e 121 186
e 121 200
e 121 201
e 121 222
e 121 223
e 121 254
e 121 260
e 122 123
e 122 145
e 122 146
e 122 165
e 122 175
e 122 200
e 122 201
e 122 222
e 122 223
e 122 254
e 122 261
e 123 145
e 123 146
e 123 166
e 123 175
e 123 187
e 123 200
e 123 201
e 123 222
e 123 223
e 123 254
e 123 262
e 124 125
e 124 145
e 124 151
e 124 152
e 124 177
e 124 178
e 124 191
e 124 203
e 124 225
e 124 226
e 124 246
e 124 255
e 125 131
e 125 146
e 125 151
e 125 152
e 125 177
e 125 178
e 125 203
e 125 225
e 125 226
e 125 246
e 125 255
e 126 127
e 126 139
e 126 163
e 126 173
e 126 177
e 126 179
e 126 180
e 126 184
e 126 200
e 126 237
e 126 239
e 126 247
e 127 140
e 127 164
e 127 172
e 127 174
e 127 178
e 127 179
e 127 180
e 127 185
e 127 201
e 127 239
e 127 247
e 128 135
e 128 153
e 128 176
e 128 188
e 128 193
e 128 204
e 128 209
e 128 217
e 128 227
e 128 241
e 128 242
e 129 130
e 129 141
e 129 151
e 129 156
e 129 158
e 129 181
e 129 205
e 129 206
e 129 207
e 129 208
e 129 227
e 129 240
e 129 256
e 130 143
e 130 160
e 130 175
e 130 181
e 130 205
e 130 206
e 130 207
e 130 208
e 130 227
e 130 235
e 130 240
e 130 256
e 131 132
e 131 146
e 131 156
e 131 157
e 131 229
e 131 230
e 131 231
e 131 241
e 131 248
e 131 263
e 132 133
e 132 156
e 132 157
e 132 192
e 132 211
e 132 229
e 132 230
e 132 231
e 132 241
e 132 248
e 132 263
e 133 158
e 133 159
e 133 160
e 133 184
e 133 185
e 133 192
e 133 210
e 133 211
e 133 232
e 133 233
e 133 242
e 133 249
e 134 137
e 134 155
e 134 161
e 134 162
e 134 171
e 134 181
e 134 188
e 134 190
e 134 196
e 134 199
e 134 203
e 134 223
e 134 236
e 134 243
e 134 244
e 135 176
e 135 188
e 135 193
e 135 209
e 135 214
e 135 217
e 135 227
e 135 241
e 135 242
e 136 137
e 136 138
e 136 154
e 136 167
e 136 168
e 136 170
e 136 189
e 136 198
e 136 210
e 136 216
e 136 222
e 136 250
e 137 155
e 137 167
e 137 168
e 137 171
e 137 181
e 137 190
e 137 196
e 137 199
e 137 203
e 137 216
e 137 223
e 137 244
e 138 154
e 138 169
e 138 170
e 138 189
e 138 193
e 138 198
e 138 210
e 138 222
e 138 238
e 138 250
e 139 140
e 139 163
e 139 170
e 139 171
e 139 173
e 139 177
e 139 184
e 139 194
e 139 195
e 139 200
e 139 217
e 139 237
e 139 245
e 140 164
e 140 170
e 140 171
e 140 172
e 140 174
e 140 178
e 140 185
e 140 194
e 140 195
e 140 201
e 140 217
e 140 245
e 141 142
e 141 143
e 141 151
e 141 156
e 141 158
e 141 172
e 141 196
e 141 218
e 141 219
e 142 143
e 142 144
e 142 152
e 142 157
e 142 159
e 142 172
e 142 196
e 142 215
e 142 218
e 142 219
e 142 234
e 143 160
e 143 172
e 143 175
e 143 196
e 143 218
e 143 219
e 143 235
e 144 152
e 144 157
e 144 159
e 144 173
e 144 174
e 144 198
e 144 199
e 144 215
e 144 220
e 144 221
e 144 234
e 145 146
e 145 175
e 145 191
e 145 200
e 145 201
e 145 222
e 145 223
e 145 254
e 146 175
e 146 200
e 146 201
e 146 222
e 146 223
e 146 254
e 147 148
e 147 149
e 147 150
e 147 176
e 147 182
e 147 202
e 147 205
e 147 224
e 147 225
e 147 229
e 147 232
e 147 252
e 147 257
e 148 149
e 148 150
e 148 161
e 148 167
e 148 176
e 148 179
e 148 183
e 148 194
e 148 202
e 148 206
e 148 212
e 148 220
e 148 224
e 148 230
e 149 150
e 149 162
e 149 169
e 149 176
e 149 202
e 149 207
e 149 213
e 149 218
e 149 221
e 149 224
e 149 233
e 150 168
e 150 176
e 150 180
e 150 195
e 150 202
e 150 208
e 150 219
e 150 224
e 150 226
e 150 231
e 150 253
e 150 258
e 151 152
e 151 156
e 151 158
e 151 177
e 151 178
e 151 203
e 151 225
e 151 226
e 151 246
e 151 255
e 152 157
e 152 159
e 152 177
e 152 178
e 152 203
e 152 215
e 152 225
e 152 226
e 152 234
e 152 246
e 152 255
e 153 202
e 153 204
e 153 216
e 153 228
e 153 240
e 153 246
e 153 248
e 153 249
e 153 254
e 154 155
e 154 170
e 154 182
e 154 183
e 154 189
e 154 198
e 154 209
e 154 210
e 154 222
e 154 228
e 154 250
e 155 171
e 155 181
e 155 182
e 155 183
e 155 190
e 155 196
e 155 199
e 155 203
e 155 209
e 155 223
e 155 228
e 155 244
e 156 157
e 156 158
e 156 229
e 156 230
e 156 231
e 156 241
e 156 248
e 156 263
e 157 159
e 157 215
e 157 229
e 157 230
e 157 231
e 157 234
e 157 241
e 157 248
e 157 263
e 158 159
e 158 160
e 158 184
e 158 185
e 158 210
e 158 232
e 158 233
e 158 242
e 158 249
e 159 160
e 159 184
e 159 185
e 159 210
e 159 215
e 159 232
e 159 233
e 159 234
e 159 242
e 159 249
e 160 175
e 160 184
e 160 185
e 160 210
e 160 232
e 160 233
e 160 235
e 160 242
e 160 249
e 161 162
e 161 167
e 161 179
e 161 183
e 161 188
e 161 194
e 161 206
e 161 212
e 161 220
e 161 230
e 161 236
e 161 243
e 162 169
e 162 188
e 162 207
e 162 213
e 162 218
e 162 221
e 162 233
e 162 236
e 162 243
e 163 164
e 163 173
e 163 177
e 163 184
e 163 189
e 163 190
e 163 200
e 163 212
e 163 213
e 163 237
e 163 251
e 163 259
e 164 172
e 164 174
e 164 178
e 164 185
e 164 189
e 164 190
e 164 201
e 164 212
e 164 213
e 164 251
e 164 259
e 165 166
e 165 191
e 165 192
e 165 215
e 165 237
e 165 244
e 165 252
e 165 253
e 165 261
e 166 187
e 166 191
e 166 192
e 166 215
e 166 237
e 166 244
e 166 252
e 166 253
e 166 262
e 167 168
e 167 179
e 167 183
e 167 194
e 167 206
e 167 212
e 167 216
e 167 220
e 167 230
e 168 180
e 168 195
e 168 208
e 168 216
e 168 219
e 168 226
e 168 231
e 168 253
e 168 258
e 169 193
e 169 207
e 169 213
e 169 218
e 169 221
e 169 233
e 169 238
e 170 171
e 170 189
e 170 194
e 170 195
e 170 198
e 170 210
e 170 217
e 170 222
e 170 245
e 170 250
e 171 181
e 171 190
e 171 194
e 171 195
e 171 196
e 171 199
e 171 203
e 171 217
e 171 223
e 171 244
e 171 245
e 172 174
e 172 178
e 172 185
e 172 196
e 172 201
e 172 218
e 172 219
e 173 174
e 173 177
e 173 184
e 173 198
e 173 199
e 173 200
e 173 220
e 173 221
e 173 237
e 174 178
e 174 185
e 174 198
e 174 199
e 174 201
e 174 220
e 174 221
e 175 200
e 175 201
e 175 222
e 175 223
e 175 235
e 175 254
e 176 188
e 176 193
e 176 202
e 176 209
e 176 217
e 176 224
e 176 227
e 176 241
e 176 242
e 177 178
e 177 184
e 177 200
e 177 203
e 177 225
e 177 226
e 177 237
e 177 246
e 177 255
e 178 185
e 178 201
e 178 203
e 178 225
e 178 226
e 178 246
e 178 255
e 179 180
e 179 183
e 179 194
e 179 206
e 179 212
e 179 220
e 179 230
e 179 239
e 179 247
e 180 195
e 180 208
e 180 219
e 180 226
e 180 231
e 180 239
e 180 247
e 180 253
e 180 258
e 181 190
e 181 196
e 181 199
e 181 203
e 181 205
e 181 206
e 181 207
e 181 208
e 181 223
e 181 227
e 181 240
e 181 244
e 181 256
e 182 183
e 182 205
e 182 209
e 182 225
e 182 228
e 182 229
e 182 232
e 182 252
e 182 257
e 183 194
e 183 206
e 183 209
e 183 212
e 183 220
e 183 228
e 183 230
e 184 185
e 184 200
e 184 210
e 184 232
e 184 233
e 184 237
e 184 242
e 184 249
e 185 201
e 185 210
e 185 232
e 185 233
e 185 242
e 185 249
e 186 187
e 186 211
e 186 234
e 186 235
e 186 250
e 186 257
e 186 258
e 186 260
e 187 211
e 187 234
e 187 235
e 187 250
e 187 257
e 187 258
e 187 262
e 188 193
e 188 209
e 188 217
e 188 227
e 188 236
e 188 241
e 188 242
e 188 243
e 189 190
e 189 198
e 189 210
e 189 212
e 189 213
e 189 222
e 189 250
e 189 251
e 189 259
e 190 196
e 190 199
e 190 203
e 190 212
e 190 213
e 190 223
e 190 244
e 190 251
e 190 259
e 191 192
e 191 215
e 191 237
e 191 244
e 191 252
e 191 253
e 192 211
e 192 215
e 192 237
e 192 244
e 192 252
e 192 253
e 193 209
e 193 217
e 193 227
e 193 238
e 193 241
e 193 242
e 194 195
e 194 206
e 194 212
e 194 217
e 194 220
e 194 230
e 194 245
e 195 208
e 195 217
e 195 219
e 195 226
e 195 231
e 195 245
e 195 253
e 195 258
e 196 199
e 196 203
e 196 218
e 196 219
e 196 223
e 196 244
e 197 224
e 197 236
e 197 238
e 197 239
e 197 245
e 197 251
e 197 255
e 198 199
e 198 210
e 198 220
e 198 221
e 198 222
e 198 250
e 199 203
e 199 220
e 199 221
e 199 223
e 199 244
e 200 201
e 200 222
e 200 223
e 200 237
e 200 254
e 201 222
e 201 223
e 201 254
e 202 216
e 202 224
e 202 228
e 202 240
e 202 246
e 202 248
e 202 249
e 202 254
e 203 223
e 203 225
e 203 226
e 203 244
e 203 246
e 203 255
e 204 214
e 204 243
e 204 247
e 204 256
e 204 259
e 204 263
e 205 206
e 205 207
e 205 208
e 205 225
e 205 227
e 205 229
e 205 232
e 205 240
e 205 252
e 205 256
e 205 257
e 206 207
e 206 208
e 206 212
e 206 220
e 206 227
e 206 230
e 206 240
e 206 256
e 207 208
e 207 213
e 207 218
e 207 221
e 207 227
e 207 233
e 207 240
e 207 256
e 208 219
e 208 226
e 208 227
e 208 231
e 208 240
e 208 253
e 208 256
e 208 258
e 209 217
e 209 227
e 209 228
e 209 241
e 209 242
e 210 222
e 210 232
e 210 233
e 210 242
e 210 249
e 210 250
e 211 234
e 211 235
e 211 250
e 211 257
e 211 258
e 212 213
e 212 220
e 212 230
e 212 251
e 212 259
e 213 218
e 213 221
e 213 233
e 213 251
e 213 259
e 214 243
e 214 247
e 214 256
e 214 259
e 214 263
e 215 234
e 215 237
e 215 244
e 215 252
e 215 253
e 216 228
e 216 240
e 216 246
e 216 248
e 216 249
e 216 254
e 217 227
e 217 241
e 217 242
e 217 245
e 218 219
e 218 221
e 218 233
e 219 226
e 219 231
e 219 253
e 219 258
e 220 221
e 220 230
e 221 233
e 222 223
e 222 250
e 222 254
e 223 244
e 223 254
e 224 236
e 224 238
e 224 239
e 224 245
e 224 251
e 224 255
e 225 226
e 225 229
e 225 232
e 225 246
e 225 252
e 225 255
e 225 257
e 226 231
e 226 246
e 226 253
e 226 255
e 226 258
e 227 240
e 227 241
e 227 242
e 227 256
e 228 240
e 228 246
e 228 248
e 228 249
e 228 254
e 229 230
e 229 231
e 229 232
e 229 241
e 229 248
e 229 252
e 229 257
e 229 263
e 230 231
e 230 241
e 230 248
e 230 263
e 231 241
e 231 248
e 231 253
e 231 258
e 231 263
e 232 233
e 232 242
e 232 249
e 232 252
e 232 257
e 233 242
e 233 249
e 234 235
e 234 250
e 234 257
e 234 258
e 235 250
e 235 257
e 235 258
e 236 238
e 236 239
e 236 243
e 236 245
e 236 251
e 236 255
e 237 244
e 237 252
e 237 253
e 238 239
e 238 245
e 238 251
e 238 255
e 239 245
e 239 247
e 239 251
e 239 255
e 240 246
e 240 248
e 240 249
e 240 254
e 240 256
e 241 242
e 241 248
e 241 263
e 242 249
e 243 247
e 243 256
e 243 259
e 243 263
e 244 252
e 244 253
e 245 251
e 245 255
e 246 248
e 246 249
e 246 254
e 246 255
e 247 256
e 247 259
e 247 263
e 248 249
e 248 254
e 248 263
e 249 254
e 250 257
e 250 258
e 251 255
e 251 259
e 252 253
e 252 257
e 253 258
e 256 259
e 256 263
e 257 258
e 259 263
e 260 261
e 260 262
e 261 262
